NAME : portcgen-29-25
COMMENT : portcgen N=29, seed=25
TYPE : TSP
DIMENSION : 29
EDGE_WEIGHT_TYPE : EUC_2D
NODE_COORD_SECTION
1 -160103 343447
2 -251908 -295573
3 -22236 -261181
4 -184054 8778
5 63428 -7102
6 -14907 98876
7 -125368 -179357
8 99338 -84923
9 232785 174073
10 52836 -83855
11 594281 34564
12 -314413 -312623
13 72079 97618
14 18123 -100616
15 -198796 -150921
16 111417 201879
17 40328 -218049
18 2196 -111143
19 -69682 -52389
20 50019 -19020
21 -41238 -208986
22 -285975 71464
23 -33352 -106046
24 -157287 288246
25 274095 -152725
26 -125248 -45713
27 23124 -325632
28 -170990 326928
29 211914 73983
